
Gurobi 7.0.2 (win64) logging started 06/24/20 00:56:09

Read LP format model from file C:\George\Professor\Pesquisa\Orientacoes em Pos-graduacao\2019 MSC PPGCC Guilherme Figueroa\Fanjuls Solver\Results\I_100_15_S_1-49_4_MTZ_KB.lp
Reading time = 0.86 seconds
: 13230 rows, 153101 columns, 629015 nonzeros
Optimize a model with 13230 rows, 153101 columns and 629015 nonzeros
Variable types: 1601 continuous, 151500 integer (151500 binary)
Coefficient statistics:
  Matrix range     [1e+00, 1e+02]
  Objective range  [1e+00, 1e+00]
  Bounds range     [1e+00, 1e+00]
  RHS range        [1e+00, 1e+02]
Presolve time: 1.53s
Presolved: 13230 rows, 153101 columns, 629015 nonzeros
Variable types: 100 continuous, 153001 integer (153000 binary)
Found heuristic solution: objective 8258.0000000
Found heuristic solution: objective 8247.0000000

Root simplex log...

Iteration    Objective       Primal Inf.    Dual Inf.      Time
    3303    7.7543371e-05   2.551652e+03   0.000000e+00      5s
    7075    2.0278056e-04   1.266650e+03   0.000000e+00     10s
   10317    3.1019953e-04   4.233671e+03   0.000000e+00     15s
   14170    5.2272881e-04   2.822219e+03   0.000000e+00     20s
   23580    6.4874021e+01   5.107995e+02   0.000000e+00     25s
   25693    6.6733942e+01   0.000000e+00   0.000000e+00     30s

Root relaxation: objective 6.673394e+01, 25693 iterations, 26.66 seconds
Total elapsed time = 30.07s

    Nodes    |    Current Node    |     Objective Bounds      |     Work
 Expl Unexpl |  Obj  Depth IntInf | Incumbent    BestBd   Gap | It/Node Time

     0     0   66.73394    0  388 8247.00000   66.73394  99.2%     -   30s
H    0     0                     132.0000000   66.73394  49.4%     -   51s
H    0     0                     111.0000000   66.73394  39.9%     -   71s
     0     0   66.79261    0  405  111.00000   66.79261  39.8%     -   80s
     0     0   66.79261    0  405  111.00000   66.79261  39.8%     -   81s
     0     0   66.93854    0  396  111.00000   66.93854  39.7%     -   88s
     0     0   66.93854    0  388  111.00000   66.93854  39.7%     -  210s
     0     0   67.00000    0  457  111.00000   67.00000  39.6%     -  244s
     0     0   67.00000    0  464  111.00000   67.00000  39.6%     -  259s
     0     0   67.00000    0  451  111.00000   67.00000  39.6%     -  267s
     0     0   67.00000    0  448  111.00000   67.00000  39.6%     -  267s
     0     0   67.00000    0  435  111.00000   67.00000  39.6%     -  271s
     0     0   67.00000    0  445  111.00000   67.00000  39.6%     -  271s
     0     0   67.00000    0  433  111.00000   67.00000  39.6%     -  276s
     0     0   67.00609    0  400  111.00000   67.00609  39.6%     -  278s
     0     0   67.01747    0  405  111.00000   67.01747  39.6%     -  284s
     0     0   67.01747    0  405  111.00000   67.01747  39.6%     -  284s
     0     0   67.04731    0  410  111.00000   67.04731  39.6%     -  291s
     0     0   67.04731    0  411  111.00000   67.04731  39.6%     -  292s
     0     0   67.04731    0  410  111.00000   67.04731  39.6%     -  297s
     0     0   67.04731    0  410  111.00000   67.04731  39.6%     -  297s
     0     0   67.04731    0  410  111.00000   67.04731  39.6%     -  303s
     0     0   67.05545    0  419  111.00000   67.05545  39.6%     -  303s
     0     0   67.07291    0  413  111.00000   67.07291  39.6%     -  309s
     0     0   67.07291    0  413  111.00000   67.07291  39.6%     -  309s
     0     0   67.07291    0  413  111.00000   67.07291  39.6%     -  315s
     0     0   68.00000    0  255  111.00000   68.00000  38.7%     -  467s
     0     0   68.00000    0  255  111.00000   68.00000  38.7%     -  481s
H    0     0                      83.0000000   68.00000  18.1%     -  484s
     0     2   68.00000    0  255   83.00000   68.00000  18.1%     -  511s
     1     3   68.00000    1  376   83.00000   68.00000  18.1%  2948  524s
     2     4   68.00000    1  388   83.00000   68.00000  18.1%  2378  545s
     3     5   68.00000    2  424   83.00000   68.00000  18.1%  1924  557s
     4     6   68.00000    2  421   83.00000   68.00000  18.1%  1662  567s
     5     7   68.00000    3  419   83.00000   68.00000  18.1%  1383  571s
     6     7   68.19244    4  415   83.00000   68.00000  18.1%  1464  583s
     7     8   68.00000    4  376   83.00000   68.00000  18.1%  1384  587s
     8     9   68.00000    5  397   83.00000   68.00000  18.1%  1321  590s
     9    10   68.00000    5  447   83.00000   68.00000  18.1%  1394  598s
    10    10   68.08268    6  365   83.00000   68.00000  18.1%  1379  602s
    11    10   68.10313    6  423   83.00000   68.00000  18.1%  1632  612s
    12    11   69.00000    7  408   83.00000   68.00000  18.1%  1973  628s
    13    12   69.00000    8  402   83.00000   68.00000  18.1%  1834  630s
    14    13   69.00000    8  424   83.00000   68.00000  18.1%  1800  639s
    15    14   69.00000    9  390   83.00000   68.00000  18.1%  1714  642s
    16    15   69.00000   10  430   83.00000   68.00000  18.1%  1638  647s
    18    17   69.00000   12  431   83.00000   68.00000  18.1%  1481  652s
    19    18   69.00000   13  395   83.00000   68.00000  18.1%  1436  655s
    21    20   69.00000   14  384   83.00000   68.00000  18.1%  1387  660s
    22    21   69.00000   15  405   83.00000   68.00000  18.1%  1407  665s
    25    22   69.05352   16  269   83.00000   68.00000  18.1%  1352  672s
    26    22   70.00000   17  398   83.00000   68.00000  18.1%  1486  686s
    27    23   70.00000   18  390   83.00000   68.00000  18.1%  1431  697s
    28    24   70.00000   19  415   83.00000   68.00000  18.1%  1393  706s
    29    25   70.00000   20  416   83.00000   68.00000  18.1%  1349  710s
    30    26   70.00000   20  394   83.00000   68.00000  18.1%  1315  715s
    32    28   70.00000   22  363   83.00000   68.00000  18.1%  1262  722s
    33    29   70.00000   23  366   83.00000   68.00000  18.1%  1228  725s
    35    31   70.00000   25  358   83.00000   68.00000  18.1%  1182  731s
    38    32   70.00000   27  362   83.00000   68.00000  18.1%  1121  737s
    39    33   70.00000   27  400   83.00000   68.00000  18.1%  1134  741s
    41    35   70.00000   28  392   83.00000   68.00000  18.1%  1120  747s
    43    36   70.59947   29  321   83.00000   68.00000  18.1%  1138  754s
    44    36   70.04730   30  304   83.00000   68.00000  18.1%  1124  755s
    46    37   71.00000   31  404   83.00000   68.00000  18.1%  1224  770s
    47    38   71.00000   32  410   83.00000   68.00000  18.1%  1205  776s
    48    39   71.00000   33  391   83.00000   68.00000  18.1%  1192  781s
    49    39   71.35022   34  309   83.00000   68.00000  18.1%  1223  788s
    50    40   71.00000   34  387   83.00000   68.00000  18.1%  1215  792s
    52    42   71.00000   36  364   83.00000   68.00000  18.1%  1181  795s
    54    44   71.00000   38  391   83.00000   68.00000  18.1%  1150  800s
    57    47   71.00000   40  349   83.00000   68.00000  18.1%  1123  806s
    60    50   71.00000   43  376   83.00000   68.00000  18.1%  1089  810s
    64    53   71.00000   46  326   83.00000   68.00000  18.1%  1058  815s
    67    54   72.00000   48  293   83.00000   68.00000  18.1%  1061  825s
    68    54   78.00000   49  266   83.00000   68.00000  18.1%  1068  832s
    69    55   72.00000   49  316   83.00000   68.00000  18.1%  1072  836s
    72    57   72.00000   51  296   83.00000   68.00000  18.1%  1060  841s
    75    58   73.00000   54  289   83.00000   68.00000  18.1%  1084  849s
    76    59   73.00000   55  286   83.00000   68.00000  18.1%  1072  850s
    78    60   73.01166   56  251   83.00000   68.00000  18.1%  1079  855s
    81    63   73.00000   57  320   83.00000   68.00000  18.1%  1060  860s
    84    65   73.00000   59  266   83.00000   68.00000  18.1%  1052  865s
    89    67   74.00000   62  279   83.00000   68.00000  18.1%  1040  874s
    91    68   74.00000   64  289   83.00000   68.00000  18.1%  1027  879s
    92    69   74.00000   65  269   83.00000   68.00000  18.1%  1017  880s
    96    71   74.00000   69  302   83.00000   68.00000  18.1%   989  886s
    98    73   74.00000   70  310   83.00000   68.00000  18.1%   980  890s
   101    75   74.00000   73  279   83.00000   68.00000  18.1%   966  896s
   106    78   74.01583   77  241   83.00000   68.00000  18.1%   938  900s
   108    78   75.00000   78  326   83.00000   68.00000  18.1%   946  906s
   113    81   75.00000   83  305   83.00000   68.00000  18.1%   917  911s
   117    83   75.00000   87  277   83.00000   68.00000  18.1%   895  915s
   125    87   75.00000   94  241   83.00000   68.00000  18.1%   854  920s
   131    88   82.00000   98  242   83.00000   68.00000  18.1%   844  927s
   136    92   76.00000  103  254   83.00000   68.00000  18.1%   823  930s
   142    93   77.00000  108  285   83.00000   68.00000  18.1%   805  935s
   149    98   77.00000  115  258   83.00000   68.00000  18.1%   774  940s
   165   104   77.00000  130  258   83.00000   68.00000  18.1%   707  945s
   176   109   78.00000  138  232   83.00000   68.00000  18.1%   681  950s
   188   116   78.00000  148  241   83.00000   68.00000  18.1%   652  956s
   199   123   79.00000  158  239   83.00000   68.00000  18.1%   627  960s
   216   132   80.00000  173  157   83.00000   68.00000  18.1%   589  965s
   233   137   80.00000  188  185   83.00000   68.00000  18.1%   553  970s
   277   152   68.00000    2  412   83.00000   68.00000  18.1%   479  976s
   279   153   69.00000    4  469   83.00000   68.00000  18.1%   498  991s
   280   154   69.00000    5  470   83.00000   68.00000  18.1%   526 1008s
   281   155   69.00000    6  473   83.00000   68.00000  18.1%   525 1010s
   282   156   69.00000    7  455   83.00000   68.00000  18.1%   523 1018s
   283   157   69.00000    8  479   83.00000   68.00000  18.1%   522 1020s
   287   160   69.20233   12  377   83.00000   68.00000  18.1%   525 1028s
   288   161   69.00000   12  462   83.00000   68.00000  18.1%   525 1030s
   293   164   69.29894   16  371   83.00000   68.00000  18.1%   528 1037s
   294   165   70.00000   17  444   83.00000   68.00000  18.1%   554 1056s
   296   167   70.00000   19  402   83.00000   68.00000  18.1%   555 1061s
   297   168   70.00000   19  395   83.00000   68.00000  18.1%   562 1082s
   299   170   70.00000   21  421   83.00000   68.00000  18.1%   561 1086s
   302   172   70.02741   24  296   83.00000   68.00000  18.1%   560 1090s
   304   173   71.00000   25  448   83.00000   68.00000  18.1%   572 1100s
   307   176   71.00000   27  435   83.00000   68.00000  18.1%   571 1106s
   309   178   71.00000   28  424   83.00000   68.00000  18.1%   572 1110s
   314   182   71.09739   33  338   83.00000   68.00000  18.1%   569 1116s
   319   186   71.00000   36  298   83.00000   68.00000  18.1%   566 1120s
   322   187   72.00000   38  347   83.00000   68.00000  18.1%   579 1134s
   323   188   72.00000   39  365   83.00000   68.00000  18.1%   578 1135s
   324   189   72.00000   39  379   83.00000   68.00000  18.1%   578 1146s
   326   190   72.45353   41  281   83.00000   68.00000  18.1%   579 1150s
   330   192   73.00000   43  315   83.00000   68.00000  18.1%   591 1164s
   331   193   73.00000   44  371   83.00000   68.00000  18.1%   590 1166s
   333   195   73.00000   45  358   83.00000   68.00000  18.1%   594 1172s
   335   197   73.00000   46  336   83.00000   68.00000  18.1%   591 1175s
   337   199   73.00000   47  331   83.00000   68.00000  18.1%   589 1182s
   338   200   73.00000   48  369   83.00000   68.00000  18.1%   588 1185s
   340   202   73.00000   50  368   83.00000   68.00000  18.1%   586 1190s
   344   206   73.00000   54  332   83.00000   68.00000  18.1%   585 1195s
   350   212   73.00000   60  304   83.00000   68.00000  18.1%   579 1200s
   355   215   73.09161   63  277   83.00000   68.00000  18.1%   576 1205s
   357   216   74.00000   64  349   83.00000   68.00000  18.1%   582 1211s
   360   219   74.00000   67  347   83.00000   68.00000  18.1%   578 1216s
   362   220   74.28417   69  268   83.00000   68.00000  18.1%   580 1221s
   365   223   74.00000   71  315   83.00000   68.00000  18.1%   578 1226s
   371   226   74.69621   76  254   83.00000   68.00000  18.1%   574 1232s
   375   228   75.00000   80  303   83.00000   68.00000  18.1%   569 1236s
   381   231   75.00000   86  285   83.00000   68.00000  18.1%   561 1240s
   386   233   75.00000   89  286   83.00000   68.00000  18.1%   558 1245s
   397   240   75.00000  100  277   83.00000   68.00000  18.1%   546 1250s
   405   242   76.00000  107  278   83.00000   68.00000  18.1%   541 1255s
   418   250   76.00000  119  261   83.00000   68.00000  18.1%   528 1260s
   429   255   77.00000  127  253   83.00000   68.00000  18.1%   521 1265s
   451   263   79.00000  145  240   83.00000   68.00000  18.1%   498 1270s
   474   274   80.00000  166  168   83.00000   68.00000  18.1%   477 1275s
   483   271   68.00000    3  444   83.00000   68.00000  18.1%   473 1281s
   484   271   68.07332    4  390   83.00000   68.00000  18.1%   476 1286s
   485   272   68.00000    4  465   83.00000   68.00000  18.1%   479 1290s
   487   273   68.01625    6  420   83.00000   68.00000  18.1%   479 1406s
   488   274   69.00000    7  462   83.00000   68.00000  18.1%   499 1433s
   489   275   69.00000    8  457   83.00000   68.00000  18.1%   499 1435s
   494   280   69.00000   13  459   83.00000   68.00000  18.1%   498 1440s
   497   282   69.00000   15  441   83.00000   68.00000  18.1%   498 1445s
   499   283   69.00000   16  410   83.00000   68.00000  18.1%   500 1450s
   503   285   70.00000   19  454   83.00000   68.00000  18.1%   519 1474s
   504   286   70.00000   20  458   83.00000   68.00000  18.1%   518 1476s
   506   287   70.01953   22  362   83.00000   68.00000  18.1%   519 1481s
   511   289   80.00000  174  396   83.00000   68.00000  18.1%   518 1551s
   513   290   72.00000   34  259   83.00000   68.00000  18.1%   516 1574s
   514   291   73.00000   45  469   83.00000   68.00000  18.1%   515 1580s
   515   292   71.00000   40  432   83.00000   68.00000  18.1%   514 1585s
   517   293   71.00000   24  457   83.00000   68.00000  18.1%   512 1590s
   519   294   80.00000  188  466   83.00000   68.00000  18.1%   510 1596s
   520   295   73.00000   45  358   83.00000   68.00000  18.1%   509 1610s
   521   296   70.00000   29  441   83.00000   68.00000  18.1%   508 1615s
   522   296   76.00000  114  361   83.00000   68.00000  18.1%   507 1626s
   523   297   78.00000   50  413   83.00000   68.00000  18.1%   506 1636s
   524   298   80.00000  163  352   83.00000   68.00000  18.1%   505 1650s
   525   298   70.00000   13  437   83.00000   68.00000  18.1%   504 1656s
   526   299   76.00000  120  390   83.00000   68.00000  18.1%   503 1669s
   527   300   78.00000  147  460   83.00000   68.00000  18.1%   502 1674s
   528   300   68.00000    2  404   83.00000   68.00000  18.1%   501 1684s
   529   301   73.00000   43  495   83.00000   68.00000  18.1%   500 1689s
   530   302   74.00000   71  377   83.00000   68.00000  18.1%   499 1701s
   531   302   80.00000  174  482   83.00000   68.00000  18.1%   498 1713s
   532   303   71.00000   24  362   83.00000   68.00000  18.1%   497 1765s
   533   304   72.00000   34  362   83.00000   68.00000  18.1%   496 1771s
   534   304   73.00000   45  362   83.00000   68.00000  18.1%   495 1785s
   535   307   68.00000   13  407   83.00000   68.00000  18.1%   799 1800s

Cutting planes:
  Gomory: 3
  Implied bound: 4
  Clique: 1
  MIR: 17
  Flow cover: 20
  Zero half: 5
  Mod-K: 2

Explored 536 nodes (454299 simplex iterations) in 1800.62 seconds
Thread count was 1 (of 12 available processors)

Solution count 5: 83 111 132 ... 8258
Pool objective bound 68

Time limit reached
Best objective 8.300000000000e+01, best bound 6.800000000000e+01, gap 18.0723%
